(set-option :rewriter.arith_ineq_lhs true)
(set-option :nlsat.shuffle_vars true)
(set-option :rewriter.elim_and true)
(set-option :rewriter.sort_sums true)
(set-option :algebraic.factor false)
(set-option :rewriter.eq2ineq true)
(declare-fun a () real)
(declare-fun b () real)
(declare-fun c () real)
(declare-fun d () real)
(declare-fun aa () real)
(declare-fun e () real)
(declare-fun f () real)
(declare-fun ab () real)
(declare-fun ac () real)
(declare-fun ad () real)
(declare-fun g () real)
(declare-fun h () real)
(declare-fun i () real)
(declare-fun j () real)
(declare-fun k () real)
(declare-fun l () real)
(declare-fun m () real)
(declare-fun n () real)
(declare-fun ae () real)
(declare-fun o () real)
(declare-fun af () real)
(declare-fun p () real)
(declare-fun q () real)
(declare-fun r () real)
(declare-fun ag () real)
(declare-fun s () real)
(declare-fun ah () real)
(declare-fun t () real)
(declare-fun ai () real)
(declare-fun u () real)
(declare-fun v () real)
(declare-fun w () real)
(declare-fun x () real)
(declare-fun y () real)
(declare-fun z () real)
(declare-fun aj () real)
(declare-fun ak () real)
(declare-fun al () real)
(declare-fun vuscore2dollarskuscore97_shifted () real)
(declare-fun am () real)
(declare-fun an () real)
(declare-fun ao () real)
(declare-fun ap () real)
(declare-fun aq () real)
(declare-fun ar () real)
(declare-fun v_shifted () real)
(declare-fun v_shifted () real)
(declare-fun i1uscore2dollarskuscore89_shifted () real)
(declare-fun ep_shifted () real)
(declare-fun ts7uscore2_shifted () real)
(declare-fun x_shifted () real)
(assert
(exists ((af real))
(=
(and
(< (+ (/ (* (- a an)) (* (- f ar))) w (/ ab 0)) af)
(xor true (<= ts7uscore2_shifted aq 0.0 (+ (* ao ts7uscore2_shifted) (- d q))) (= 0 ah))
(< (* (+ (+ (* (- d q) (+ (* (* (- n ak)) (- h v))))) (* (* ao (- h v)) (+ (* (- h v)) (* (- d q)))))) 0.0)
(<= v_shifted 0.0 ao)
(< 0.0 (- h v)))
(< (+ (/ (* (+ (* ao aq) (- d q)) (+ (* ao aq) (- d q))) (* (- n ak)))) aj))))
(assert (= o b af c p vuscore2dollarskuscore97_shifted aa r x_shifted e ag s ac t ad ai g u i (+ w ts7uscore2_shifted)))
(assert (= j x v_shifted k y i1uscore2dollarskuscore89_shifted l z ep_shifted m aj n (+ ak ap) ae al am))
(check-sat)